c Maximum weighted clique instances generated from exactcolors.
c cutoff: 2372910.
c A clique of value > scalef (2372910) defines an improving stable sets for coloring.
p edge 50 0
n 1 2372910
n 2 2372910
n 3 2372910
n 4 2372910
n 5 2372910
n 6 2372910
n 7 2372910
n 8 2372910
n 9 2372910
n 10 2372910
n 11 2372910
n 12 2372910
n 13 2372910
n 14 2372910
n 15 2372910
n 16 2372910
n 17 2372910
n 18 2372910
n 19 2372910
n 20 2372910
n 21 2372910
n 22 2372910
n 23 2372910
n 24 2372910
n 25 2372910
n 26 2372910
n 27 2372910
n 28 2372910
n 29 2372910
n 30 2372910
n 31 2372910
n 32 2372910
n 33 2372910
n 34 2372910
n 35 2372910
n 36 2372910
n 37 2372910
n 38 2372910
n 39 2372910
n 40 2372910
n 41 2372910
n 42 2372910
n 43 2372910
n 44 2372910
n 45 2372910
n 46 2372910
n 47 2372910
n 48 2372910
n 49 2372910
n 50 2372910
